Route 1: 0 76 99 25 24 87 8 18 0
Route 2: 0 100 96 17 69 91 16 11 59 78 14 0
Route 3: 0 84 35 39 38 71 46 30 97 4 90 7 49 0
Route 4: 0 54 50 36 32 1 20 62 42 19 0
Route 5: 0 58 6 79 43 60 92 75 45 81 0
Route 6: 0 26 56 65 88 15 86 51 0
Route 7: 0 93 23 52 98 63 61 73 28 0
Route 8: 0 55 12 68 57 37 80 67 2 41 95 29 5 0
Route 9: 0 53 40 77 70 13 31 27 66 0
Route 10: 0 3 10 83 33 44 85 72 74 0
Route 11: 0 89 48 22 82 21 9 47 64 94 34 0
